40	100	100	100
39	45	23
14	34	13
9	25	6
38	10	5
38	46	7
36	30	44
14	13	47
41	43	8
38	33	2
31	28	7
47	27	1
16	47	36
18	21	29
19	34	1
46	19	49
7	3	8
1	40	6
19	9	6
5	11	5
49	11	48
37	1	40
48	12	29
9	22	26
36	2	27
17	27	27
13	15	14
39	23	20
7	8	43
11	25	27
2	10	15
25	24	26
7	12	23
13	46	2
48	43	11
37	40	33
49	3	20
44	15	49
8	43	34
33	4	25
49	38	18
